(declare-const X String)
; Host\x3A\w+User-Agent\x3A\sTeomaBarHost\x3AHoursHost\x3AHost\x3A
(assert (str.in.re X (re.++ (str.to.re "Host:") (re.+ (re.union (re.range "0" "9") (re.range "A" "Z") (re.range "a" "z") (str.to.re "_"))) (str.to.re "User-Agent:") (re.union (str.to.re " ") (str.to.re "\x09") (str.to.re "\x0a") (str.to.re "\x0c") (str.to.re "\x0d")) (str.to.re "TeomaBarHost:HoursHost:Host:\x0a"))))
; ^[^\x00-\x1f\x21-\x26\x28-\x2d\x2f-\x40\x5b-\x60\x7b-\xff]+$
(assert (str.in.re X (re.++ (re.+ (re.union (re.range "\x00" "\x1f") (re.range "!" "&") (re.range "(" "-") (re.range "/" "@") (re.range "[" "`") (re.range "{" "\xff"))) (str.to.re "\x0a"))))
; www\x2Efreescratchandwin\x2Ecom\w+Port.*User-Agent\x3AToolbarkit
(assert (not (str.in.re X (re.++ (str.to.re "www.freescratchandwin.com") (re.+ (re.union (re.range "0" "9") (re.range "A" "Z") (re.range "a" "z") (str.to.re "_"))) (str.to.re "Port") (re.* re.allchar) (str.to.re "User-Agent:Toolbarkit\x0a")))))
(check-sat)
